certificates/rado_a15_c248_N66.drat
17 -62 13 0
-17 -63 -66 0
-63 -66 0
d -17 -63 -66 0
-66 0
13 0
17 0
-10 0
-24 0
-6 0
-20 0
62 0
-55 0
16 0
58 0
14 0
-9 0
3 0
-8 0
-23 0
-25 0
-11 0
-5 0
-21 0
-54 0
-65 0
-51 0
-50 0
-7 0
-22 0
-41 0
-52 0
61 0
-56 0
60 0
63 0
57 0
2 0
59 0
-53 0
19 0
4 0
-64 0
0
